% File represents an instance of a Composite Structure problem to be solved by a CP framework
% Created on 2025-03-26 10:41:36.200
T = 50;
n = 25;
m = 40;
edges = [(1, 2),
(6, 7),
(11, 12),
(16, 17),
(22, 21),
(2, 3),
(7, 8),
(12, 13),
(17, 18),
(22, 23),
(3, 4),
(8, 9),
(13, 14),
(18, 19),
(23, 24),
(4, 5),
(9, 10),
(14, 15),
(20, 19),
(25, 24),
(1, 6),
(6, 11),
(11, 16),
(16, 21),
(2, 7),
(7, 12),
(12, 17),
(22, 17),
(3, 8),
(8, 13),
(13, 18),
(23, 18),
(4, 9),
(9, 14),
(14, 19),
(24, 19),
(5, 10),
(10, 15),
(20, 15),
(25, 20)];
counts = [|10, 12, 10, 18,
|8, 12, 8, 16,
|8, 10, 8, 12,
|8, 4, 8, 12,
|6, 4, 6, 12,
|10, 8, 10, 16,
|8, 6, 8, 16,
|8, 6, 8, 12,
|8, 4, 8, 8,
|6, 4, 6, 8,
|10, 6, 10, 14,
|8, 4, 8, 14,
|8, 4, 8, 12,
|8, 4, 8, 6,
|6, 4, 6, 6,
|10, 4, 10, 14,
|8, 4, 8, 12,
|8, 2, 8, 8,
|8, 2, 8, 6,
|8, 4, 8, 6,
|10, 4, 10, 10,
|10, 4, 10, 12,
|10, 4, 10, 8,
|10, 4, 10, 6,
|10, 6, 10, 6|];
